-40 -44 0
7 8 -44 0
8 9 -44 0
9 -44 0
d 8 9 -44 0
-6 -44 0
d -6 -10 -44 0
-44 0
-6 0
40 0
10 0
-36 0
-14 0
2 0
-28 0
-7 -8 0
d -7 -3 -8 0
-1 -9 0
d -1 -12 -9 0
-9 0
20 0
33 0
43 0
17 0
25 0
3 0
7 0
39 0
0
